25
1 0 2
2 0 2
2 1 2
3 0 5
3 1 3
3 2 1
4 0 5
4 1 5
4 2 5
4 3 5
5 0 1
5 1 3
5 2 5
5 3 4
5 4 2
6 0 1
6 1 4
6 2 1
6 3 3
6 4 4
6 5 1
7 0 4
7 1 2
7 2 2
7 3 1
7 4 2
7 5 1
7 6 3
8 0 3
8 1 1
8 2 4
8 3 3
8 4 3
8 5 1
8 6 5
8 7 4
9 0 3
9 1 1
9 2 1
9 3 2
9 4 5
9 5 4
9 6 5
9 7 4
9 8 5
10 0 3
10 1 1
10 2 3
10 3 2
10 4 3
10 5 5
10 6 4
10 7 3
10 8 2
10 9 2
11 0 1
11 1 4
11 2 4
11 3 1
11 4 1
11 5 4
11 6 3
11 7 5
11 8 4
11 9 5
11 10 5
12 0 4
12 1 4
12 2 4
12 3 1
12 4 1
12 5 1
12 6 4
12 7 1
12 8 5
12 9 2
12 10 3
12 11 3
13 0 5
13 1 4
13 2 5
13 3 4
13 4 4
13 5 1
13 6 5
13 7 4
13 8 2
13 9 5
13 10 2
13 11 3
13 12 3
14 0 3
14 1 1
14 2 1
14 3 1
14 4 3
14 5 4
14 6 3
14 7 3
14 8 3
14 9 1
14 10 2
14 11 2
14 12 2
14 13 1
15 0 1
15 1 3
15 2 1
15 3 2
15 4 3
15 5 1
15 6 1
15 7 1
15 8 1
15 9 3
15 10 4
15 11 3
15 12 3
15 13 5
15 14 3
16 0 2
16 1 3
16 2 1
16 3 1
16 4 1
16 5 4
16 6 2
16 7 2
16 8 1
16 9 2
16 10 1
16 11 3
16 12 1
16 13 3
16 14 1
16 15 3
17 0 3
17 1 3
17 2 4
17 3 4
17 4 2
17 5 1
17 6 1
17 7 1
17 8 5
17 9 5
17 10 5
17 11 4
17 12 4
17 13 3
17 14 4
17 15 1
17 16 5
18 0 3
18 1 3
18 2 3
18 3 4
18 4 1
18 5 5
18 6 2
18 7 4
18 8 1
18 9 3
18 10 1
18 11 4
18 12 3
18 13 4
18 14 5
18 15 5
18 16 1
18 17 4
19 0 5
19 1 5
19 2 2
19 3 2
19 4 5
19 5 1
19 6 4
19 7 3
19 8 3
19 9 4
19 10 3
19 11 2
19 12 2
19 13 1
19 14 1
19 15 4
19 16 1
19 17 1
19 18 5
20 0 4
20 1 3
20 2 5
20 3 4
20 4 4
20 5 5
20 6 1
20 7 4
20 8 2
20 9 3
20 10 5
20 11 1
20 12 2
20 13 3
20 14 2
20 15 3
20 16 3
20 17 4
20 18 5
20 19 2
21 0 1
21 1 5
21 2 3
21 3 3
21 4 1
21 5 4
21 6 5
21 7 1
21 8 2
21 9 3
21 10 2
21 11 3
21 12 3
21 13 1
21 14 3
21 15 5
21 16 3
21 17 1
21 18 5
21 19 3
21 20 2
22 0 4
22 1 3
22 2 4
22 3 4
22 4 5
22 5 3
22 6 4
22 7 4
22 8 1
22 9 3
22 10 1
22 11 4
22 12 2
22 13 4
22 14 5
22 15 3
22 16 1
22 17 3
22 18 3
22 19 3
22 20 3
22 21 1
23 0 4
23 1 4
23 2 1
23 3 5
23 4 2
23 5 4
23 6 5
23 7 4
23 8 5
23 9 4
23 10 4
23 11 2
23 12 2
23 13 5
23 14 3
23 15 4
23 16 1
23 17 3
23 18 4
23 19 4
23 20 5
23 21 5
23 22 3
24 0 5
24 1 1
24 2 1
24 3 3
24 4 5
24 5 4
24 6 2
24 7 5
24 8 3
24 9 1
24 10 1
24 11 5
24 12 3
24 13 5
24 14 4
24 15 1
24 16 1
24 17 5
24 18 3
24 19 2
24 20 1
24 21 1
24 22 2
24 23 4
